(set-info :origin "SVCOMP13 benchmarks generated by Arie Gurfinkel")
(set-info :status sat)
(set-logic HORN)
(declare-fun cp-rel-bb2.i.i21.i.i () Bool)
(declare-fun cp-rel-entry () Bool)
(declare-fun cp-rel-bb1.i.i (Real Real Real) Bool)
(assert |cp-rel-entry|)
(assert (forall ((?A Real) (?B Real) (?C Real) (?D Bool) )(let (($x125103 (and |cp-rel-entry| (<= ?C 0.0) (>= ?B 1.0) (<= ?B 1.0) (>= ?A 0.0) (<= ?A 0.0) (= ?D true) (>= ?C 0.0))))
(=> $x125103 (|cp-rel-bb1.i.i| ?A ?B ?C))))
)
(assert (forall ((?A Real) (?B Real) (?C Real) (?D Real) (?E Real) (?F Real) (?G Bool) (?H Bool) (?I Bool) (?J Bool) (?K Bool) (?L Bool) (?M Real) (?N Real) (?O Bool) (?P Bool) (?Q Bool) (?R Bool) (?S Bool) (?T Bool) (?U Real) (?V Real) (?W Bool) (?X Bool) (?Y Bool) (?Z Bool) (?A1 Bool) (?B1 Bool) (?C1 Real) (?D1 Real) (?E1 Bool) (?F1 Bool) (?G1 Bool) (?H1 Bool) (?I1 Bool) (?J1 Bool) (?K1 Real) (?L1 Real) (?M1 Bool) (?N1 Bool) (?O1 Real) (?P1 Bool) (?Q1 Real) (?R1 Real) (?S1 Bool) (?T1 Bool) (?U1 Real) (?V1 Bool) (?W1 Bool) (?X1 Bool) (?Y1 Bool) (?Z1 Bool) (?A2 Bool) )(let (($x164928 (|cp-rel-bb1.i.i| ?D ?E ?F)))
(let (($x629912 (= ?N1 (and ?A2 ?Z1))))
(let (($x154424 (or (not ?G) (and ?H ?I (not ?J)))))
(let (($x302305 (or (not ?G) ?I)))
(let (($x385561 (not ?K)))
(let (($x140981 (or $x385561 (and ?G ?L (<= ?M ?N) (>= ?M ?N)) (and ?H ?O ?J (<= ?M ?B) (>= ?M ?B)))))
(let (($x81717 (or $x385561 (and ?L (not ?O)) (and ?O (not ?L)))))
(let (($x338865 (or (not ?P) (and ?K ?Q (not ?R)))))
(let (($x231094 (or (not ?P) ?Q)))
(let (($x261905 (not ?S)))
(let (($x861600 (or $x261905 (and ?P ?T (<= ?U ?V) (>= ?U ?V)) (and ?K ?W ?R (<= ?U ?A) (>= ?U ?A)))))
(let (($x402099 (or $x261905 (and ?T (not ?W)) (and ?W (not ?T)))))
(let (($x900405 (or (not ?X) (and ?S ?Y (not ?Z)))))
(let (($x649501 (or (not ?X) ?Y)))
(let (($x38142 (or (not ?A1) (and ?X ?B1 (<= ?C1 ?D1) (>= ?C1 ?D1)) (and ?S ?E1 ?Z (<= ?C1 ?M) (>= ?C1 ?M)))))
(let (($x623325 (or (not ?A1) (and ?B1 (not ?E1)) (and ?E1 (not ?B1)))))
(let (($x552460 (or (not ?F1) (and ?A1 ?G1 ?H1))))
(let (($x396890 (or (not ?F1) ?G1)))
(let (($x509533 (not ?I1)))
(let (($x19551 (or $x509533 (and ?F1 ?J1 (<= ?K1 ?L1) (>= ?K1 ?L1)) (and ?A1 ?M1 (not ?H1) (<= ?K1 ?C) (>= ?K1 ?C)))))
(let (($x619133 (or $x509533 (and ?J1 (not ?M1)) (and ?M1 (not ?J1)))))
(let (($x409749 (= ?I1 true)))
(let (($x148428 (= ?J (= ?O1 0.0))))
(let (($x2982 (= ?Q1 (ite ?P1 1.0 0.0))))
(let (($x873562 (= ?R (= ?R1 0.0))))
(let (($x21731 (= ?V (ite ?S1 1.0 0.0))))
(let (($x846960 (= ?T1 (not (<= ?M 0.0)))))
(let (($x304224 (= ?U1 (+ (~ 1.0) ?M))))
(let (($x101657 (= ?D1 (ite ?T1 ?U1 ?M))))
(let (($x287342 (= ?V1 (not (<= ?C1 1.0)))))
(let (($x445769 (= ?H1 (and ?V1 ?Z))))
(let (($x558581 (= ?W1 (= ?U 0.0))))
(let (($x66561 (= ?X1 (= ?U 0.0))))
(let (($x248919 (= ?Y1 (= ?C1 2.0))))
(let (($x246929 (= ?Z1 (= ?K1 0.0))))
(let (($x611825 (= ?A2 (and ?Y1 ?X1))))
(let (($x77731 (and (|cp-rel-bb1.i.i| ?A ?B ?C) $x611825 $x246929 $x248919 $x66561 (= ?L1 (ite ?W1 1.0 ?C)) $x558581 $x445769 $x287342 $x101657 $x304224 $x846960 (= ?Z (= ?C 0.0)) $x21731 (= ?S1 (= ?A 0.0)) $x873562 (= ?N (+ ?Q1 ?B)) $x2982 (= ?P1 (not (<= 2.0 ?B))) $x148428 (>= ?F ?K1) (<= ?F ?K1) (>= ?E ?C1) (<= ?E ?C1) (>= ?D ?U) (<= ?D ?U) (not (= ?N1 true)) $x409749 $x619133 $x19551 $x396890 $x552460 $x623325 $x38142 $x649501 $x900405 $x402099 $x861600 $x231094 $x338865 $x81717 $x140981 $x302305 $x154424 $x629912)))
(=> $x77731 $x164928)))))))))))))))))))))))))))))))))))))))
)
(assert (forall ((?A Real) (?B Real) (?C Real) (?D Bool) (?E Bool) (?F Bool) (?G Bool) (?H Bool) (?I Bool) (?J Real) (?K Real) (?L Bool) (?M Bool) (?N Bool) (?O Bool) (?P Bool) (?Q Bool) (?R Real) (?S Real) (?T Bool) (?U Bool) (?V Bool) (?W Bool) (?X Bool) (?Y Bool) (?Z Real) (?A1 Real) (?B1 Bool) (?C1 Bool) (?D1 Bool) (?E1 Bool) (?F1 Bool) (?G1 Bool) (?H1 Real) (?I1 Real) (?J1 Bool) (?K1 Bool) (?L1 Real) (?M1 Bool) (?N1 Real) (?O1 Real) (?P1 Bool) (?Q1 Bool) (?R1 Real) (?S1 Bool) (?T1 Bool) (?U1 Bool) (?V1 Bool) (?W1 Bool) (?X1 Bool) )(let (($x629912 (= ?K1 (and ?X1 ?W1))))
(let (($x154424 (or (not ?D) (and ?E ?F (not ?G)))))
(let (($x302305 (or (not ?D) ?F)))
(let (($x385561 (not ?H)))
(let (($x647204 (or $x385561 (and ?D ?I (<= ?J ?K) (>= ?J ?K)) (and ?E ?L ?G (<= ?J ?B) (>= ?J ?B)))))
(let (($x81717 (or $x385561 (and ?I (not ?L)) (and ?L (not ?I)))))
(let (($x338865 (or (not ?M) (and ?H ?N (not ?O)))))
(let (($x231094 (or (not ?M) ?N)))
(let (($x261905 (not ?P)))
(let (($x50142 (or $x261905 (and ?M ?Q (<= ?R ?S) (>= ?R ?S)) (and ?H ?T ?O (<= ?R ?A) (>= ?R ?A)))))
(let (($x402099 (or $x261905 (and ?Q (not ?T)) (and ?T (not ?Q)))))
(let (($x900405 (or (not ?U) (and ?P ?V (not ?W)))))
(let (($x649501 (or (not ?U) ?V)))
(let (($x38142 (or (not ?X) (and ?U ?Y (<= ?Z ?A1) (>= ?Z ?A1)) (and ?P ?B1 ?W (<= ?Z ?J) (>= ?Z ?J)))))
(let (($x623325 (or (not ?X) (and ?Y (not ?B1)) (and ?B1 (not ?Y)))))
(let (($x552460 (or (not ?C1) (and ?X ?D1 ?E1))))
(let (($x396890 (or (not ?C1) ?D1)))
(let (($x509533 (not ?F1)))
(let (($x229693 (or $x509533 (and ?C1 ?G1 (<= ?H1 ?I1) (>= ?H1 ?I1)) (and ?X ?J1 (not ?E1) (<= ?H1 ?C) (>= ?H1 ?C)))))
(let (($x619133 (or $x509533 (and ?G1 (not ?J1)) (and ?J1 (not ?G1)))))
(let (($x409749 (= ?F1 true)))
(let (($x214461 (= ?K1 true)))
(let (($x148428 (= ?G (= ?L1 0.0))))
(let (($x2982 (= ?N1 (ite ?M1 1.0 0.0))))
(let (($x873562 (= ?O (= ?O1 0.0))))
(let (($x21731 (= ?S (ite ?P1 1.0 0.0))))
(let (($x846960 (= ?Q1 (not (<= ?J 0.0)))))
(let (($x304224 (= ?R1 (+ (~ 1.0) ?J))))
(let (($x101657 (= ?A1 (ite ?Q1 ?R1 ?J))))
(let (($x287342 (= ?S1 (not (<= ?Z 1.0)))))
(let (($x445769 (= ?E1 (and ?S1 ?W))))
(let (($x558581 (= ?T1 (= ?R 0.0))))
(let (($x66561 (= ?U1 (= ?R 0.0))))
(let (($x248919 (= ?V1 (= ?Z 2.0))))
(let (($x246929 (= ?W1 (= ?H1 0.0))))
(let (($x611825 (= ?X1 (and ?V1 ?U1))))
(let (($x164928 (|cp-rel-bb1.i.i| ?A ?B ?C)))
(let (($x230019 (and $x164928 $x611825 $x246929 $x248919 $x66561 (= ?I1 (ite ?T1 1.0 ?C)) $x558581 $x445769 $x287342 $x101657 $x304224 $x846960 (= ?W (= ?C 0.0)) $x21731 (= ?P1 (= ?A 0.0)) $x873562 (= ?K (+ ?N1 ?B)) $x2982 (= ?M1 (not (<= 2.0 ?B))) $x148428 $x214461 $x409749 $x619133 $x229693 $x396890 $x552460 $x623325 $x38142 $x649501 $x900405 $x402099 $x50142 $x231094 $x338865 $x81717 $x647204 $x302305 $x154424 $x629912)))
(=> $x230019 |cp-rel-bb2.i.i21.i.i|))))))))))))))))))))))))))))))))))))))))
)
(assert (not cp-rel-bb2.i.i21.i.i))
(check-sat)
